(set-logic QF_LRA)
(declare-fun T1 () Real )
(declare-fun T2 () Real )
(declare-fun T3 () Real )
(declare-fun T4 () Real )
(declare-fun T5 () Real )
(declare-fun T6 () Real )
(declare-fun T7 () Real )
(declare-fun T8 () Real )
(declare-fun Z () Real )
(declare-fun k () Real )
(assert (let
(( $goal (>= Z k) ))
(let
((
$phi ( and 
(or ( <= ( + T1 20 ) T2 ) ( <= ( + T2 12 ) T1 ) )
(or ( <= ( + T1 57 )  ( + T2 12 ) ) ( <= ( + T2 20 )( + T1 20 ) ) )
(or ( <= ( + T1 91 )  ( + T2 20 ) ) ( <= ( + T2 68 )( + T1 57 ) ) )
(or ( <= ( + T1 149 )  ( + T2 68 ) ) ( <= ( + T2 78 )( + T1 91 ) ) )
(or ( <= ( + T1 184 )  ( + T2 78 ) ) ( <= ( + T2 115 )( + T1 149 ) ) )
(or ( <= ( + T1 261 )  ( + T2 115 ) ) ( <= ( + T2 185 )( + T1 184 ) ) )
(or ( <= ( + T1 20 ) T3 ) ( <= ( + T3 30 ) T1 ) )
(or ( <= ( + T1 57 )  ( + T3 30 ) ) ( <= ( + T3 50 )( + T1 20 ) ) )
(or ( <= ( + T1 91 )  ( + T3 50 ) ) ( <= ( + T3 93 )( + T1 57 ) ) )
(or ( <= ( + T1 149 )  ( + T3 93 ) ) ( <= ( + T3 168 )( + T1 91 ) ) )
(or ( <= ( + T1 184 )  ( + T3 168 ) ) ( <= ( + T3 232 )( + T1 149 ) ) )
(or ( <= ( + T1 261 )  ( + T3 232 ) ) ( <= ( + T3 286 )( + T1 184 ) ) )
(or ( <= ( + T1 20 ) T4 ) ( <= ( + T4 15 ) T1 ) )
(or ( <= ( + T1 57 )  ( + T4 15 ) ) ( <= ( + T4 67 )( + T1 20 ) ) )
(or ( <= ( + T1 91 )  ( + T4 67 ) ) ( <= ( + T4 114 )( + T1 57 ) ) )
(or ( <= ( + T1 149 )  ( + T4 114 ) ) ( <= ( + T4 166 )( + T1 91 ) ) )
(or ( <= ( + T1 184 )  ( + T4 166 ) ) ( <= ( + T4 247 )( + T1 149 ) ) )
(or ( <= ( + T1 261 )  ( + T4 247 ) ) ( <= ( + T4 340 )( + T1 184 ) ) )
(or ( <= ( + T1 20 ) T5 ) ( <= ( + T5 21 ) T1 ) )
(or ( <= ( + T1 57 )  ( + T5 21 ) ) ( <= ( + T5 106 )( + T1 20 ) ) )
(or ( <= ( + T1 91 )  ( + T5 106 ) ) ( <= ( + T5 161 )( + T1 57 ) ) )
(or ( <= ( + T1 149 )  ( + T5 161 ) ) ( <= ( + T5 177 )( + T1 91 ) ) )
(or ( <= ( + T1 184 )  ( + T5 177 ) ) ( <= ( + T5 272 )( + T1 149 ) ) )
(or ( <= ( + T1 261 )  ( + T5 272 ) ) ( <= ( + T5 333 )( + T1 184 ) ) )
(or ( <= ( + T1 20 ) T6 ) ( <= ( + T6 23 ) T1 ) )
(or ( <= ( + T1 57 )  ( + T6 23 ) ) ( <= ( + T6 90 )( + T1 20 ) ) )
(or ( <= ( + T1 91 )  ( + T6 90 ) ) ( <= ( + T6 187 )( + T1 57 ) ) )
(or ( <= ( + T1 149 )  ( + T6 187 ) ) ( <= ( + T6 196 )( + T1 91 ) ) )
(or ( <= ( + T1 184 )  ( + T6 196 ) ) ( <= ( + T6 220 )( + T1 149 ) ) )
(or ( <= ( + T1 261 )  ( + T6 220 ) ) ( <= ( + T6 304 )( + T1 184 ) ) )
(or ( <= ( + T1 20 ) T7 ) ( <= ( + T7 85 ) T1 ) )
(or ( <= ( + T1 57 )  ( + T7 85 ) ) ( <= ( + T7 172 )( + T1 20 ) ) )
(or ( <= ( + T1 91 )  ( + T7 172 ) ) ( <= ( + T7 263 )( + T1 57 ) ) )
(or ( <= ( + T1 149 )  ( + T7 263 ) ) ( <= ( + T7 348 )( + T1 91 ) ) )
(or ( <= ( + T1 184 )  ( + T7 348 ) ) ( <= ( + T7 444 )( + T1 149 ) ) )
(or ( <= ( + T1 261 )  ( + T7 444 ) ) ( <= ( + T7 471 )( + T1 184 ) ) )
(or ( <= ( + T1 20 ) T8 ) ( <= ( + T8 54 ) T1 ) )
(or ( <= ( + T1 57 )  ( + T8 54 ) ) ( <= ( + T8 79 )( + T1 20 ) ) )
(or ( <= ( + T1 91 )  ( + T8 79 ) ) ( <= ( + T8 177 )( + T1 57 ) ) )
(or ( <= ( + T1 149 )  ( + T8 177 ) ) ( <= ( + T8 226 )( + T1 91 ) ) )
(or ( <= ( + T1 184 )  ( + T8 226 ) ) ( <= ( + T8 325 )( + T1 149 ) ) )
(or ( <= ( + T1 261 )  ( + T8 325 ) ) ( <= ( + T8 338 )( + T1 184 ) ) )
(or ( <= ( + T2 12 ) T3 ) ( <= ( + T3 30 ) T2 ) )
(or ( <= ( + T2 20 )  ( + T3 30 ) ) ( <= ( + T3 50 )( + T2 12 ) ) )
(or ( <= ( + T2 68 )  ( + T3 50 ) ) ( <= ( + T3 93 )( + T2 20 ) ) )
(or ( <= ( + T2 78 )  ( + T3 93 ) ) ( <= ( + T3 168 )( + T2 68 ) ) )
(or ( <= ( + T2 115 )  ( + T3 168 ) ) ( <= ( + T3 232 )( + T2 78 ) ) )
(or ( <= ( + T2 185 )  ( + T3 232 ) ) ( <= ( + T3 286 )( + T2 115 ) ) )
(or ( <= ( + T2 12 ) T4 ) ( <= ( + T4 15 ) T2 ) )
(or ( <= ( + T2 20 )  ( + T4 15 ) ) ( <= ( + T4 67 )( + T2 12 ) ) )
(or ( <= ( + T2 68 )  ( + T4 67 ) ) ( <= ( + T4 114 )( + T2 20 ) ) )
(or ( <= ( + T2 78 )  ( + T4 114 ) ) ( <= ( + T4 166 )( + T2 68 ) ) )
(or ( <= ( + T2 115 )  ( + T4 166 ) ) ( <= ( + T4 247 )( + T2 78 ) ) )
(or ( <= ( + T2 185 )  ( + T4 247 ) ) ( <= ( + T4 340 )( + T2 115 ) ) )
(or ( <= ( + T2 12 ) T5 ) ( <= ( + T5 21 ) T2 ) )
(or ( <= ( + T2 20 )  ( + T5 21 ) ) ( <= ( + T5 106 )( + T2 12 ) ) )
(or ( <= ( + T2 68 )  ( + T5 106 ) ) ( <= ( + T5 161 )( + T2 20 ) ) )
(or ( <= ( + T2 78 )  ( + T5 161 ) ) ( <= ( + T5 177 )( + T2 68 ) ) )
(or ( <= ( + T2 115 )  ( + T5 177 ) ) ( <= ( + T5 272 )( + T2 78 ) ) )
(or ( <= ( + T2 185 )  ( + T5 272 ) ) ( <= ( + T5 333 )( + T2 115 ) ) )
(or ( <= ( + T2 12 ) T6 ) ( <= ( + T6 23 ) T2 ) )
(or ( <= ( + T2 20 )  ( + T6 23 ) ) ( <= ( + T6 90 )( + T2 12 ) ) )
(or ( <= ( + T2 68 )  ( + T6 90 ) ) ( <= ( + T6 187 )( + T2 20 ) ) )
(or ( <= ( + T2 78 )  ( + T6 187 ) ) ( <= ( + T6 196 )( + T2 68 ) ) )
(or ( <= ( + T2 115 )  ( + T6 196 ) ) ( <= ( + T6 220 )( + T2 78 ) ) )
(or ( <= ( + T2 185 )  ( + T6 220 ) ) ( <= ( + T6 304 )( + T2 115 ) ) )
(or ( <= ( + T2 12 ) T7 ) ( <= ( + T7 85 ) T2 ) )
(or ( <= ( + T2 20 )  ( + T7 85 ) ) ( <= ( + T7 172 )( + T2 12 ) ) )
(or ( <= ( + T2 68 )  ( + T7 172 ) ) ( <= ( + T7 263 )( + T2 20 ) ) )
(or ( <= ( + T2 78 )  ( + T7 263 ) ) ( <= ( + T7 348 )( + T2 68 ) ) )
(or ( <= ( + T2 115 )  ( + T7 348 ) ) ( <= ( + T7 444 )( + T2 78 ) ) )
(or ( <= ( + T2 185 )  ( + T7 444 ) ) ( <= ( + T7 471 )( + T2 115 ) ) )
(or ( <= ( + T2 12 ) T8 ) ( <= ( + T8 54 ) T2 ) )
(or ( <= ( + T2 20 )  ( + T8 54 ) ) ( <= ( + T8 79 )( + T2 12 ) ) )
(or ( <= ( + T2 68 )  ( + T8 79 ) ) ( <= ( + T8 177 )( + T2 20 ) ) )
(or ( <= ( + T2 78 )  ( + T8 177 ) ) ( <= ( + T8 226 )( + T2 68 ) ) )
(or ( <= ( + T2 115 )  ( + T8 226 ) ) ( <= ( + T8 325 )( + T2 78 ) ) )
(or ( <= ( + T2 185 )  ( + T8 325 ) ) ( <= ( + T8 338 )( + T2 115 ) ) )
(or ( <= ( + T3 30 ) T4 ) ( <= ( + T4 15 ) T3 ) )
(or ( <= ( + T3 50 )  ( + T4 15 ) ) ( <= ( + T4 67 )( + T3 30 ) ) )
(or ( <= ( + T3 93 )  ( + T4 67 ) ) ( <= ( + T4 114 )( + T3 50 ) ) )
(or ( <= ( + T3 168 )  ( + T4 114 ) ) ( <= ( + T4 166 )( + T3 93 ) ) )
(or ( <= ( + T3 232 )  ( + T4 166 ) ) ( <= ( + T4 247 )( + T3 168 ) ) )
(or ( <= ( + T3 286 )  ( + T4 247 ) ) ( <= ( + T4 340 )( + T3 232 ) ) )
(or ( <= ( + T3 30 ) T5 ) ( <= ( + T5 21 ) T3 ) )
(or ( <= ( + T3 50 )  ( + T5 21 ) ) ( <= ( + T5 106 )( + T3 30 ) ) )
(or ( <= ( + T3 93 )  ( + T5 106 ) ) ( <= ( + T5 161 )( + T3 50 ) ) )
(or ( <= ( + T3 168 )  ( + T5 161 ) ) ( <= ( + T5 177 )( + T3 93 ) ) )
(or ( <= ( + T3 232 )  ( + T5 177 ) ) ( <= ( + T5 272 )( + T3 168 ) ) )
(or ( <= ( + T3 286 )  ( + T5 272 ) ) ( <= ( + T5 333 )( + T3 232 ) ) )
(or ( <= ( + T3 30 ) T6 ) ( <= ( + T6 23 ) T3 ) )
(or ( <= ( + T3 50 )  ( + T6 23 ) ) ( <= ( + T6 90 )( + T3 30 ) ) )
(or ( <= ( + T3 93 )  ( + T6 90 ) ) ( <= ( + T6 187 )( + T3 50 ) ) )
(or ( <= ( + T3 168 )  ( + T6 187 ) ) ( <= ( + T6 196 )( + T3 93 ) ) )
(or ( <= ( + T3 232 )  ( + T6 196 ) ) ( <= ( + T6 220 )( + T3 168 ) ) )
(or ( <= ( + T3 286 )  ( + T6 220 ) ) ( <= ( + T6 304 )( + T3 232 ) ) )
(or ( <= ( + T3 30 ) T7 ) ( <= ( + T7 85 ) T3 ) )
(or ( <= ( + T3 50 )  ( + T7 85 ) ) ( <= ( + T7 172 )( + T3 30 ) ) )
(or ( <= ( + T3 93 )  ( + T7 172 ) ) ( <= ( + T7 263 )( + T3 50 ) ) )
(or ( <= ( + T3 168 )  ( + T7 263 ) ) ( <= ( + T7 348 )( + T3 93 ) ) )
(or ( <= ( + T3 232 )  ( + T7 348 ) ) ( <= ( + T7 444 )( + T3 168 ) ) )
(or ( <= ( + T3 286 )  ( + T7 444 ) ) ( <= ( + T7 471 )( + T3 232 ) ) )
(or ( <= ( + T3 30 ) T8 ) ( <= ( + T8 54 ) T3 ) )
(or ( <= ( + T3 50 )  ( + T8 54 ) ) ( <= ( + T8 79 )( + T3 30 ) ) )
(or ( <= ( + T3 93 )  ( + T8 79 ) ) ( <= ( + T8 177 )( + T3 50 ) ) )
(or ( <= ( + T3 168 )  ( + T8 177 ) ) ( <= ( + T8 226 )( + T3 93 ) ) )
(or ( <= ( + T3 232 )  ( + T8 226 ) ) ( <= ( + T8 325 )( + T3 168 ) ) )
(or ( <= ( + T3 286 )  ( + T8 325 ) ) ( <= ( + T8 338 )( + T3 232 ) ) )
(or ( <= ( + T4 15 ) T5 ) ( <= ( + T5 21 ) T4 ) )
(or ( <= ( + T4 67 )  ( + T5 21 ) ) ( <= ( + T5 106 )( + T4 15 ) ) )
(or ( <= ( + T4 114 )  ( + T5 106 ) ) ( <= ( + T5 161 )( + T4 67 ) ) )
(or ( <= ( + T4 166 )  ( + T5 161 ) ) ( <= ( + T5 177 )( + T4 114 ) ) )
(or ( <= ( + T4 247 )  ( + T5 177 ) ) ( <= ( + T5 272 )( + T4 166 ) ) )
(or ( <= ( + T4 340 )  ( + T5 272 ) ) ( <= ( + T5 333 )( + T4 247 ) ) )
(or ( <= ( + T4 15 ) T6 ) ( <= ( + T6 23 ) T4 ) )
(or ( <= ( + T4 67 )  ( + T6 23 ) ) ( <= ( + T6 90 )( + T4 15 ) ) )
(or ( <= ( + T4 114 )  ( + T6 90 ) ) ( <= ( + T6 187 )( + T4 67 ) ) )
(or ( <= ( + T4 166 )  ( + T6 187 ) ) ( <= ( + T6 196 )( + T4 114 ) ) )
(or ( <= ( + T4 247 )  ( + T6 196 ) ) ( <= ( + T6 220 )( + T4 166 ) ) )
(or ( <= ( + T4 340 )  ( + T6 220 ) ) ( <= ( + T6 304 )( + T4 247 ) ) )
(or ( <= ( + T4 15 ) T7 ) ( <= ( + T7 85 ) T4 ) )
(or ( <= ( + T4 67 )  ( + T7 85 ) ) ( <= ( + T7 172 )( + T4 15 ) ) )
(or ( <= ( + T4 114 )  ( + T7 172 ) ) ( <= ( + T7 263 )( + T4 67 ) ) )
(or ( <= ( + T4 166 )  ( + T7 263 ) ) ( <= ( + T7 348 )( + T4 114 ) ) )
(or ( <= ( + T4 247 )  ( + T7 348 ) ) ( <= ( + T7 444 )( + T4 166 ) ) )
(or ( <= ( + T4 340 )  ( + T7 444 ) ) ( <= ( + T7 471 )( + T4 247 ) ) )
(or ( <= ( + T4 15 ) T8 ) ( <= ( + T8 54 ) T4 ) )
(or ( <= ( + T4 67 )  ( + T8 54 ) ) ( <= ( + T8 79 )( + T4 15 ) ) )
(or ( <= ( + T4 114 )  ( + T8 79 ) ) ( <= ( + T8 177 )( + T4 67 ) ) )
(or ( <= ( + T4 166 )  ( + T8 177 ) ) ( <= ( + T8 226 )( + T4 114 ) ) )
(or ( <= ( + T4 247 )  ( + T8 226 ) ) ( <= ( + T8 325 )( + T4 166 ) ) )
(or ( <= ( + T4 340 )  ( + T8 325 ) ) ( <= ( + T8 338 )( + T4 247 ) ) )
(or ( <= ( + T5 21 ) T6 ) ( <= ( + T6 23 ) T5 ) )
(or ( <= ( + T5 106 )  ( + T6 23 ) ) ( <= ( + T6 90 )( + T5 21 ) ) )
(or ( <= ( + T5 161 )  ( + T6 90 ) ) ( <= ( + T6 187 )( + T5 106 ) ) )
(or ( <= ( + T5 177 )  ( + T6 187 ) ) ( <= ( + T6 196 )( + T5 161 ) ) )
(or ( <= ( + T5 272 )  ( + T6 196 ) ) ( <= ( + T6 220 )( + T5 177 ) ) )
(or ( <= ( + T5 333 )  ( + T6 220 ) ) ( <= ( + T6 304 )( + T5 272 ) ) )
(or ( <= ( + T5 21 ) T7 ) ( <= ( + T7 85 ) T5 ) )
(or ( <= ( + T5 106 )  ( + T7 85 ) ) ( <= ( + T7 172 )( + T5 21 ) ) )
(or ( <= ( + T5 161 )  ( + T7 172 ) ) ( <= ( + T7 263 )( + T5 106 ) ) )
(or ( <= ( + T5 177 )  ( + T7 263 ) ) ( <= ( + T7 348 )( + T5 161 ) ) )
(or ( <= ( + T5 272 )  ( + T7 348 ) ) ( <= ( + T7 444 )( + T5 177 ) ) )
(or ( <= ( + T5 333 )  ( + T7 444 ) ) ( <= ( + T7 471 )( + T5 272 ) ) )
(or ( <= ( + T5 21 ) T8 ) ( <= ( + T8 54 ) T5 ) )
(or ( <= ( + T5 106 )  ( + T8 54 ) ) ( <= ( + T8 79 )( + T5 21 ) ) )
(or ( <= ( + T5 161 )  ( + T8 79 ) ) ( <= ( + T8 177 )( + T5 106 ) ) )
(or ( <= ( + T5 177 )  ( + T8 177 ) ) ( <= ( + T8 226 )( + T5 161 ) ) )
(or ( <= ( + T5 272 )  ( + T8 226 ) ) ( <= ( + T8 325 )( + T5 177 ) ) )
(or ( <= ( + T5 333 )  ( + T8 325 ) ) ( <= ( + T8 338 )( + T5 272 ) ) )
(or ( <= ( + T6 23 ) T7 ) ( <= ( + T7 85 ) T6 ) )
(or ( <= ( + T6 90 )  ( + T7 85 ) ) ( <= ( + T7 172 )( + T6 23 ) ) )
(or ( <= ( + T6 187 )  ( + T7 172 ) ) ( <= ( + T7 263 )( + T6 90 ) ) )
(or ( <= ( + T6 196 )  ( + T7 263 ) ) ( <= ( + T7 348 )( + T6 187 ) ) )
(or ( <= ( + T6 220 )  ( + T7 348 ) ) ( <= ( + T7 444 )( + T6 196 ) ) )
(or ( <= ( + T6 304 )  ( + T7 444 ) ) ( <= ( + T7 471 )( + T6 220 ) ) )
(or ( <= ( + T6 23 ) T8 ) ( <= ( + T8 54 ) T6 ) )
(or ( <= ( + T6 90 )  ( + T8 54 ) ) ( <= ( + T8 79 )( + T6 23 ) ) )
(or ( <= ( + T6 187 )  ( + T8 79 ) ) ( <= ( + T8 177 )( + T6 90 ) ) )
(or ( <= ( + T6 196 )  ( + T8 177 ) ) ( <= ( + T8 226 )( + T6 187 ) ) )
(or ( <= ( + T6 220 )  ( + T8 226 ) ) ( <= ( + T8 325 )( + T6 196 ) ) )
(or ( <= ( + T6 304 )  ( + T8 325 ) ) ( <= ( + T8 338 )( + T6 220 ) ) )
(or ( <= ( + T7 85 ) T8 ) ( <= ( + T8 54 ) T7 ) )
(or ( <= ( + T7 172 )  ( + T8 54 ) ) ( <= ( + T8 79 )( + T7 85 ) ) )
(or ( <= ( + T7 263 )  ( + T8 79 ) ) ( <= ( + T8 177 )( + T7 172 ) ) )
(or ( <= ( + T7 348 )  ( + T8 177 ) ) ( <= ( + T8 226 )( + T7 263 ) ) )
(or ( <= ( + T7 444 )  ( + T8 226 ) ) ( <= ( + T8 325 )( + T7 348 ) ) )
(or ( <= ( + T7 471 )  ( + T8 325 ) ) ( <= ( + T8 338 )( + T7 444 ) ) )
( <= ( + T1 261 ) Z)
( <= ( + T2 185 ) Z)
( <= ( + T3 286 ) Z)
( <= ( + T4 340 ) Z)
( <= ( + T5 333 ) Z)
( <= ( + T6 304 ) Z)
( <= ( + T7 471 ) Z)
( <= ( + T8 338 ) Z)
( >= T1 0 )
( >= T2 0 )
( >= T3 0 )
( >= T4 0 )
( >= T5 0 )
( >= T6 0 )
( >= T7 0 )
( >= T8 0 )
) )
)(=> $phi $goal))))